(assert (forall ((pkt_0_4_6_0  Int  )(state_group_0_state_0_5_7_0  Int  )(state_group_0_state_1_6_8_0  Int  )) (let ((_n0 state_group_0_state_1_6_8_0 ))
(let ((_n1 state_group_0_state_0_5_7_0 ))
(let ((_n2 true ))
(let ((_n3 (+   _n1   (ite  _n2  1 0) ) ))
(let ((_n4 (ite (=  _n0  0)  _n3   _n1  ) ))
(let ((_n5 3 ))
(let ((_n6 (<   _n5   _n1 ) ))
(let ((_n7 false ))
(let ((_n8 (ite  _n6   (ite  _n7  1 0)   _n0  ) ))
(let ((_n9 (<   _n8   (ite  _n2  1 0) ) ))
(let ((_n10 (ite  _n6   _n7   _n9  ) ))
(let ((_n11 (not  _n10 ) ))
(let ((_n12 (or   _n11   _n6 ) ))
(let ((_n13 pkt_0_4_6_0 ))
(let ((_n14 (ite  _n12   (ite  _n7  1 0)   _n13  ) ))
(let ((_n15 (ite  _n12   (ite  _n7  1 0)   _n0  ) ))
(let ((_n16 (+   _n15   _n14 ) ))
(let ((_n17 (=   _n16   (ite  _n7  1 0) ) ))
(let ((_n18 (ite  _n12   _n7   _n17  ) ))
(let ((_n19 (or   _n18   _n12 ) ))
(let ((_n20 (not  _n19 ) ))
(let ((_n21 (+   _n1   (ite  _n20  1 0) ) ))
(let ((_n22 (not  _n18 ) ))
(let ((_n23 (or   _n22   _n12 ) ))
(let ((_n24 (ite  _n23   (ite  _n7  1 0)   _n13  ) ))
(let ((_n25 (not  _n23 ) ))
(let ((_n26 (+   (ite  _n25  1 0)   _n24 ) ))
(let ((_n27 (ite  _n23   (ite  _n7  1 0)   _n26  ) ))
(let ((_n28 (+   _n1   _n27 ) ))
(let ((_n29 (ite (=  (ite  _n18  1 0)  1)  _n28   _n21  ) ))
(let ((_n30 (ite (=  (ite  _n10  1 0)  1)  _n29   _n1  ) ))
(let ((_n31 (ite  _n6   _n0   (ite  _n7  1 0)  ) ))
(let ((_n32 (=   _n31   (ite  _n2  1 0) ) ))
(let ((_n33 (not  _n32 ) ))
(let ((_n34 (and   _n6   _n33 ) ))
(let ((_n35 (and   _n34   _n6 ) ))
(let ((_n36 (+   _n1   (ite  _n35  1 0) ) ))
(let ((_n37 (ite (=  (ite  _n34  1 0)  1)  _n36   _n1  ) ))
(let ((_n38 (ite (=  (ite  _n6  1 0)  1)  _n37   _n30  ) ))
(let ((_n39 (=   _n38   _n4 ) ))
(let ((_n41 (ite (=  _n1  999)  (ite  _n2  1 0)   _n0  ) ))
(let ((_n42 (ite (=  _n0  0)  _n41   _n0  ) ))
(let ((_n43 (+   _n0   (ite  _n35  1 0) ) ))
(let ((_n44 (ite (=  (ite  _n34  1 0)  1)  _n43   _n0  ) ))
(let ((_n45 (ite (=  (ite  _n6  1 0)  1)  _n44   _n0  ) ))
(let ((_n46 (=   _n45   _n42 ) ))
(let ((_n48 (ite (=  _n13  0)  _n13   (ite  _n7  1 0)  ) ))
(let ((_n49 (ite (=  _n13  0)  _n48   _n13  ) ))
(let ((_n50 (=   _n49   _n13 ) ))
(implies  (and (and (>= state_group_0_state_1_6_8_0 0) (< state_group_0_state_1_6_8_0 1024 ))  (and (and (>= state_group_0_state_0_5_7_0 0) (< state_group_0_state_0_5_7_0 1024 ))  (and (>= pkt_0_4_6_0 0) (< pkt_0_4_6_0 1024 )) ) )   (and  _n39  _n46  _n50 )  ))))))))))))))))))))))))))))))))))))))))))))))))))))
(check-sat)
(get-model)
(exit)